NAME: random problem
TYPE: MTSP
COMMENT: MTSP problem for MRS UAV summer school
DIMENSION: 20
NUMBER_OF_ROBOTS: 2
START_TARGET_INDEXES: 1, 2
NEIGHBORHOOD_RADIUS: 2
EDGE_WEIGHT_TYPE: EUC_2D
NODE_COORD_SECTION
1 15.0 -21.0
2 -5.0 -25.0
3 17.4 -25.7
4 -1.3 -13.4
5 10.2 5.2
6 13.2 -10.5
7 -14.3 10.8
8 -13.0 -25.6
9 3.6 -7.3
10 33.0 -17.8
11 -13.0 -5.5
12 -6.1 9.9
13 -23.5 -15.6
14 -23.9 -33.8
15 -23.8 -6.3
16 -30.8 -24.4
17 -26.5 -18.9
18 -14.6 -26.6
19 22.7 4.9
20 -15.8 -30.5
EOF
